150 578665906
44 11 113 49 90 86 58 150 103 47 32 67 95 114 144 141 109 73 82 80 135 119 77 27 83 45 24 92 143 121 34 125 107 84 48 63 17 122 65 139 38 98 21 149 94 112 28 55 104 71 53 102 39 60 145 89 61 147 75 13 117 46 30 7 9 129 106 111 2 140 37 101 74 146 42 29 128 136 25 131 41 105 123 70 87 16 108 35 26 10 62 133 148 56 59 142 18 43 1 110 126 85 76 132 72 19 66 97 99 127 14 64 52 96 40 81 116 134 68 51 91 20 33 118 115 6 12 4 79 36 54 100 50 130 93 5 23 3 138 22 78 120 124 57 88 15 8 137 69 31 
